p cnf 245 1932
1 2 3 4 5 6 7 0
8 9 10 11 12 13 14 0
15 16 17 18 19 20 21 0
22 23 24 25 26 27 28 0
29 30 31 32 33 34 35 0
36 37 38 39 40 41 42 0
43 44 45 46 47 48 49 0
50 51 52 53 54 55 56 0
57 58 59 60 61 62 63 0
64 65 66 67 68 69 70 0
71 72 73 74 75 76 77 0
78 79 80 81 82 83 84 0
85 86 87 88 89 90 91 0
92 93 94 95 96 97 98 0
99 100 101 102 103 104 105 0
106 107 108 109 110 111 112 0
113 114 115 116 117 118 119 0
120 121 122 123 124 125 126 0
127 128 129 130 131 132 133 0
134 135 136 137 138 139 140 0
141 142 143 144 145 146 147 0
148 149 150 151 152 153 154 0
155 156 157 158 159 160 161 0
162 163 164 165 166 167 168 0
169 170 171 172 173 174 175 0
176 177 178 179 180 181 182 0
183 184 185 186 187 188 189 0
190 191 192 193 194 195 196 0
197 198 199 200 201 202 203 0
204 205 206 207 208 209 210 0
211 212 213 214 215 216 217 0
218 219 220 221 222 223 224 0
225 226 227 228 229 230 231 0
232 233 234 235 236 237 238 0
239 240 241 242 243 244 245 0
-1 -43 0
-2 -44 0
-3 -45 0
-4 -46 0
-5 -47 0
-6 -48 0
-7 -49 0
-1 -50 0
-2 -51 0
-3 -52 0
-4 -53 0
-5 -54 0
-6 -55 0
-7 -56 0
-1 -71 0
-2 -72 0
-3 -73 0
-4 -74 0
-5 -75 0
-6 -76 0
-7 -77 0
-1 -78 0
-2 -79 0
-3 -80 0
-4 -81 0
-5 -82 0
-6 -83 0
-7 -84 0
-1 -85 0
-2 -86 0
-3 -87 0
-4 -88 0
-5 -89 0
-6 -90 0
-7 -91 0
-1 -99 0
-2 -100 0
-3 -101 0
-4 -102 0
-5 -103 0
-6 -104 0
-7 -105 0
-1 -106 0
-2 -107 0
-3 -108 0
-4 -109 0
-5 -110 0
-6 -111 0
-7 -112 0
-1 -113 0
-2 -114 0
-3 -115 0
-4 -116 0
-5 -117 0
-6 -118 0
-7 -119 0
-1 -127 0
-2 -128 0
-3 -129 0
-4 -130 0
-5 -131 0
-6 -132 0
-7 -133 0
-1 -148 0
-2 -149 0
-3 -150 0
-4 -151 0
-5 -152 0
-6 -153 0
-7 -154 0
-1 -155 0
-2 -156 0
-3 -157 0
-4 -158 0
-5 -159 0
-6 -160 0
-7 -161 0
-1 -169 0
-2 -170 0
-3 -171 0
-4 -172 0
-5 -173 0
-6 -174 0
-7 -175 0
-1 -183 0
-2 -184 0
-3 -185 0
-4 -186 0
-5 -187 0
-6 -188 0
-7 -189 0
-1 -218 0
-2 -219 0
-3 -220 0
-4 -221 0
-5 -222 0
-6 -223 0
-7 -224 0
-1 -225 0
-2 -226 0
-3 -227 0
-4 -228 0
-5 -229 0
-6 -230 0
-7 -231 0
-1 -232 0
-2 -233 0
-3 -234 0
-4 -235 0
-5 -236 0
-6 -237 0
-7 -238 0
-1 -239 0
-2 -240 0
-3 -241 0
-4 -242 0
-5 -243 0
-6 -244 0
-7 -245 0
-8 -15 0
-9 -16 0
-10 -17 0
-11 -18 0
-12 -19 0
-13 -20 0
-14 -21 0
-8 -29 0
-9 -30 0
-10 -31 0
-11 -32 0
-12 -33 0
-13 -34 0
-14 -35 0
-8 -43 0
-9 -44 0
-10 -45 0
-11 -46 0
-12 -47 0
-13 -48 0
-14 -49 0
-8 -57 0
-9 -58 0
-10 -59 0
-11 -60 0
-12 -61 0
-13 -62 0
-14 -63 0
-8 -71 0
-9 -72 0
-10 -73 0
-11 -74 0
-12 -75 0
-13 -76 0
-14 -77 0
-8 -99 0
-9 -100 0
-10 -101 0
-11 -102 0
-12 -103 0
-13 -104 0
-14 -105 0
-8 -106 0
-9 -107 0
-10 -108 0
-11 -109 0
-12 -110 0
-13 -111 0
-14 -112 0
-8 -113 0
-9 -114 0
-10 -115 0
-11 -116 0
-12 -117 0
-13 -118 0
-14 -119 0
-8 -127 0
-9 -128 0
-10 -129 0
-11 -130 0
-12 -131 0
-13 -132 0
-14 -133 0
-8 -134 0
-9 -135 0
-10 -136 0
-11 -137 0
-12 -138 0
-13 -139 0
-14 -140 0
-8 -148 0
-9 -149 0
-10 -150 0
-11 -151 0
-12 -152 0
-13 -153 0
-14 -154 0
-8 -155 0
-9 -156 0
-10 -157 0
-11 -158 0
-12 -159 0
-13 -160 0
-14 -161 0
-8 -162 0
-9 -163 0
-10 -164 0
-11 -165 0
-12 -166 0
-13 -167 0
-14 -168 0
-8 -169 0
-9 -170 0
-10 -171 0
-11 -172 0
-12 -173 0
-13 -174 0
-14 -175 0
-8 -197 0
-9 -198 0
-10 -199 0
-11 -200 0
-12 -201 0
-13 -202 0
-14 -203 0
-8 -204 0
-9 -205 0
-10 -206 0
-11 -207 0
-12 -208 0
-13 -209 0
-14 -210 0
-8 -211 0
-9 -212 0
-10 -213 0
-11 -214 0
-12 -215 0
-13 -216 0
-14 -217 0
-8 -225 0
-9 -226 0
-10 -227 0
-11 -228 0
-12 -229 0
-13 -230 0
-14 -231 0
-8 -239 0
-9 -240 0
-10 -241 0
-11 -242 0
-12 -243 0
-13 -244 0
-14 -245 0
-15 -50 0
-16 -51 0
-17 -52 0
-18 -53 0
-19 -54 0
-20 -55 0
-21 -56 0
-15 -71 0
-16 -72 0
-17 -73 0
-18 -74 0
-19 -75 0
-20 -76 0
-21 -77 0
-15 -85 0
-16 -86 0
-17 -87 0
-18 -88 0
-19 -89 0
-20 -90 0
-21 -91 0
-15 -92 0
-16 -93 0
-17 -94 0
-18 -95 0
-19 -96 0
-20 -97 0
-21 -98 0
-15 -99 0
-16 -100 0
-17 -101 0
-18 -102 0
-19 -103 0
-20 -104 0
-21 -105 0
-15 -106 0
-16 -107 0
-17 -108 0
-18 -109 0
-19 -110 0
-20 -111 0
-21 -112 0
-15 -113 0
-16 -114 0
-17 -115 0
-18 -116 0
-19 -117 0
-20 -118 0
-21 -119 0
-15 -120 0
-16 -121 0
-17 -122 0
-18 -123 0
-19 -124 0
-20 -125 0
-21 -126 0
-15 -127 0
-16 -128 0
-17 -129 0
-18 -130 0
-19 -131 0
-20 -132 0
-21 -133 0
-15 -141 0
-16 -142 0
-17 -143 0
-18 -144 0
-19 -145 0
-20 -146 0
-21 -147 0
-15 -162 0
-16 -163 0
-17 -164 0
-18 -165 0
-19 -166 0
-20 -167 0
-21 -168 0
-15 -176 0
-16 -177 0
-17 -178 0
-18 -179 0
-19 -180 0
-20 -181 0
-21 -182 0
-15 -197 0
-16 -198 0
-17 -199 0
-18 -200 0
-19 -201 0
-20 -202 0
-21 -203 0
-15 -204 0
-16 -205 0
-17 -206 0
-18 -207 0
-19 -208 0
-20 -209 0
-21 -210 0
-15 -211 0
-16 -212 0
-17 -213 0
-18 -214 0
-19 -215 0
-20 -216 0
-21 -217 0
-15 -218 0
-16 -219 0
-17 -220 0
-18 -221 0
-19 -222 0
-20 -223 0
-21 -224 0
-15 -225 0
-16 -226 0
-17 -227 0
-18 -228 0
-19 -229 0
-20 -230 0
-21 -231 0
-15 -239 0
-16 -240 0
-17 -241 0
-18 -242 0
-19 -243 0
-20 -244 0
-21 -245 0
-22 -36 0
-23 -37 0
-24 -38 0
-25 -39 0
-26 -40 0
-27 -41 0
-28 -42 0
-22 -50 0
-23 -51 0
-24 -52 0
-25 -53 0
-26 -54 0
-27 -55 0
-28 -56 0
-22 -57 0
-23 -58 0
-24 -59 0
-25 -60 0
-26 -61 0
-27 -62 0
-28 -63 0
-22 -71 0
-23 -72 0
-24 -73 0
-25 -74 0
-26 -75 0
-27 -76 0
-28 -77 0
-22 -78 0
-23 -79 0
-24 -80 0
-25 -81 0
-26 -82 0
-27 -83 0
-28 -84 0
-22 -85 0
-23 -86 0
-24 -87 0
-25 -88 0
-26 -89 0
-27 -90 0
-28 -91 0
-22 -92 0
-23 -93 0
-24 -94 0
-25 -95 0
-26 -96 0
-27 -97 0
-28 -98 0
-22 -141 0
-23 -142 0
-24 -143 0
-25 -144 0
-26 -145 0
-27 -146 0
-28 -147 0
-22 -148 0
-23 -149 0
-24 -150 0
-25 -151 0
-26 -152 0
-27 -153 0
-28 -154 0
-22 -197 0
-23 -198 0
-24 -199 0
-25 -200 0
-26 -201 0
-27 -202 0
-28 -203 0
-22 -225 0
-23 -226 0
-24 -227 0
-25 -228 0
-26 -229 0
-27 -230 0
-28 -231 0
-22 -232 0
-23 -233 0
-24 -234 0
-25 -235 0
-26 -236 0
-27 -237 0
-28 -238 0
-22 -239 0
-23 -240 0
-24 -241 0
-25 -242 0
-26 -243 0
-27 -244 0
-28 -245 0
-29 -36 0
-30 -37 0
-31 -38 0
-32 -39 0
-33 -40 0
-34 -41 0
-35 -42 0
-29 -50 0
-30 -51 0
-31 -52 0
-32 -53 0
-33 -54 0
-34 -55 0
-35 -56 0
-29 -57 0
-30 -58 0
-31 -59 0
-32 -60 0
-33 -61 0
-34 -62 0
-35 -63 0
-29 -64 0
-30 -65 0
-31 -66 0
-32 -67 0
-33 -68 0
-34 -69 0
-35 -70 0
-29 -92 0
-30 -93 0
-31 -94 0
-32 -95 0
-33 -96 0
-34 -97 0
-35 -98 0
-29 -106 0
-30 -107 0
-31 -108 0
-32 -109 0
-33 -110 0
-34 -111 0
-35 -112 0
-29 -120 0
-30 -121 0
-31 -122 0
-32 -123 0
-33 -124 0
-34 -125 0
-35 -126 0
-29 -141 0
-30 -142 0
-31 -143 0
-32 -144 0
-33 -145 0
-34 -146 0
-35 -147 0
-29 -190 0
-30 -191 0
-31 -192 0
-32 -193 0
-33 -194 0
-34 -195 0
-35 -196 0
-29 -197 0
-30 -198 0
-31 -199 0
-32 -200 0
-33 -201 0
-34 -202 0
-35 -203 0
-29 -239 0
-30 -240 0
-31 -241 0
-32 -242 0
-33 -243 0
-34 -244 0
-35 -245 0
-36 -50 0
-37 -51 0
-38 -52 0
-39 -53 0
-40 -54 0
-41 -55 0
-42 -56 0
-36 -57 0
-37 -58 0
-38 -59 0
-39 -60 0
-40 -61 0
-41 -62 0
-42 -63 0
-36 -99 0
-37 -100 0
-38 -101 0
-39 -102 0
-40 -103 0
-41 -104 0
-42 -105 0
-36 -113 0
-37 -114 0
-38 -115 0
-39 -116 0
-40 -117 0
-41 -118 0
-42 -119 0
-36 -120 0
-37 -121 0
-38 -122 0
-39 -123 0
-40 -124 0
-41 -125 0
-42 -126 0
-36 -127 0
-37 -128 0
-38 -129 0
-39 -130 0
-40 -131 0
-41 -132 0
-42 -133 0
-36 -134 0
-37 -135 0
-38 -136 0
-39 -137 0
-40 -138 0
-41 -139 0
-42 -140 0
-36 -155 0
-37 -156 0
-38 -157 0
-39 -158 0
-40 -159 0
-41 -160 0
-42 -161 0
-36 -204 0
-37 -205 0
-38 -206 0
-39 -207 0
-40 -208 0
-41 -209 0
-42 -210 0
-43 -50 0
-44 -51 0
-45 -52 0
-46 -53 0
-47 -54 0
-48 -55 0
-49 -56 0
-43 -57 0
-44 -58 0
-45 -59 0
-46 -60 0
-47 -61 0
-48 -62 0
-49 -63 0
-43 -92 0
-44 -93 0
-45 -94 0
-46 -95 0
-47 -96 0
-48 -97 0
-49 -98 0
-43 -106 0
-44 -107 0
-45 -108 0
-46 -109 0
-47 -110 0
-48 -111 0
-49 -112 0
-43 -113 0
-44 -114 0
-45 -115 0
-46 -116 0
-47 -117 0
-48 -118 0
-49 -119 0
-43 -120 0
-44 -121 0
-45 -122 0
-46 -123 0
-47 -124 0
-48 -125 0
-49 -126 0
-43 -127 0
-44 -128 0
-45 -129 0
-46 -130 0
-47 -131 0
-48 -132 0
-49 -133 0
-43 -134 0
-44 -135 0
-45 -136 0
-46 -137 0
-47 -138 0
-48 -139 0
-49 -140 0
-43 -141 0
-44 -142 0
-45 -143 0
-46 -144 0
-47 -145 0
-48 -146 0
-49 -147 0
-43 -148 0
-44 -149 0
-45 -150 0
-46 -151 0
-47 -152 0
-48 -153 0
-49 -154 0
-43 -155 0
-44 -156 0
-45 -157 0
-46 -158 0
-47 -159 0
-48 -160 0
-49 -161 0
-43 -183 0
-44 -184 0
-45 -185 0
-46 -186 0
-47 -187 0
-48 -188 0
-49 -189 0
-43 -190 0
-44 -191 0
-45 -192 0
-46 -193 0
-47 -194 0
-48 -195 0
-49 -196 0
-43 -225 0
-44 -226 0
-45 -227 0
-46 -228 0
-47 -229 0
-48 -230 0
-49 -231 0
-50 -64 0
-51 -65 0
-52 -66 0
-53 -67 0
-54 -68 0
-55 -69 0
-56 -70 0
-50 -85 0
-51 -86 0
-52 -87 0
-53 -88 0
-54 -89 0
-55 -90 0
-56 -91 0
-50 -92 0
-51 -93 0
-52 -94 0
-53 -95 0
-54 -96 0
-55 -97 0
-56 -98 0
-50 -99 0
-51 -100 0
-52 -101 0
-53 -102 0
-54 -103 0
-55 -104 0
-56 -105 0
-50 -106 0
-51 -107 0
-52 -108 0
-53 -109 0
-54 -110 0
-55 -111 0
-56 -112 0
-50 -120 0
-51 -121 0
-52 -122 0
-53 -123 0
-54 -124 0
-55 -125 0
-56 -126 0
-50 -141 0
-51 -142 0
-52 -143 0
-53 -144 0
-54 -145 0
-55 -146 0
-56 -147 0
-50 -148 0
-51 -149 0
-52 -150 0
-53 -151 0
-54 -152 0
-55 -153 0
-56 -154 0
-50 -155 0
-51 -156 0
-52 -157 0
-53 -158 0
-54 -159 0
-55 -160 0
-56 -161 0
-50 -162 0
-51 -163 0
-52 -164 0
-53 -165 0
-54 -166 0
-55 -167 0
-56 -168 0
-50 -169 0
-51 -170 0
-52 -171 0
-53 -172 0
-54 -173 0
-55 -174 0
-56 -175 0
-50 -176 0
-51 -177 0
-52 -178 0
-53 -179 0
-54 -180 0
-55 -181 0
-56 -182 0
-50 -204 0
-51 -205 0
-52 -206 0
-53 -207 0
-54 -208 0
-55 -209 0
-56 -210 0
-50 -218 0
-51 -219 0
-52 -220 0
-53 -221 0
-54 -222 0
-55 -223 0
-56 -224 0
-50 -239 0
-51 -240 0
-52 -241 0
-53 -242 0
-54 -243 0
-55 -244 0
-56 -245 0
-57 -78 0
-58 -79 0
-59 -80 0
-60 -81 0
-61 -82 0
-62 -83 0
-63 -84 0
-57 -85 0
-58 -86 0
-59 -87 0
-60 -88 0
-61 -89 0
-62 -90 0
-63 -91 0
-57 -92 0
-58 -93 0
-59 -94 0
-60 -95 0
-61 -96 0
-62 -97 0
-63 -98 0
-57 -120 0
-58 -121 0
-59 -122 0
-60 -123 0
-61 -124 0
-62 -125 0
-63 -126 0
-57 -127 0
-58 -128 0
-59 -129 0
-60 -130 0
-61 -131 0
-62 -132 0
-63 -133 0
-57 -141 0
-58 -142 0
-59 -143 0
-60 -144 0
-61 -145 0
-62 -146 0
-63 -147 0
-57 -148 0
-58 -149 0
-59 -150 0
-60 -151 0
-61 -152 0
-62 -153 0
-63 -154 0
-57 -155 0
-58 -156 0
-59 -157 0
-60 -158 0
-61 -159 0
-62 -160 0
-63 -161 0
-57 -204 0
-58 -205 0
-59 -206 0
-60 -207 0
-61 -208 0
-62 -209 0
-63 -210 0
-57 -239 0
-58 -240 0
-59 -241 0
-60 -242 0
-61 -243 0
-62 -244 0
-63 -245 0
-64 -71 0
-65 -72 0
-66 -73 0
-67 -74 0
-68 -75 0
-69 -76 0
-70 -77 0
-64 -106 0
-65 -107 0
-66 -108 0
-67 -109 0
-68 -110 0
-69 -111 0
-70 -112 0
-64 -120 0
-65 -121 0
-66 -122 0
-67 -123 0
-68 -124 0
-69 -125 0
-70 -126 0
-64 -127 0
-65 -128 0
-66 -129 0
-67 -130 0
-68 -131 0
-69 -132 0
-70 -133 0
-64 -141 0
-65 -142 0
-66 -143 0
-67 -144 0
-68 -145 0
-69 -146 0
-70 -147 0
-64 -148 0
-65 -149 0
-66 -150 0
-67 -151 0
-68 -152 0
-69 -153 0
-70 -154 0
-64 -162 0
-65 -163 0
-66 -164 0
-67 -165 0
-68 -166 0
-69 -167 0
-70 -168 0
-64 -169 0
-65 -170 0
-66 -171 0
-67 -172 0
-68 -173 0
-69 -174 0
-70 -175 0
-64 -190 0
-65 -191 0
-66 -192 0
-67 -193 0
-68 -194 0
-69 -195 0
-70 -196 0
-64 -197 0
-65 -198 0
-66 -199 0
-67 -200 0
-68 -201 0
-69 -202 0
-70 -203 0
-64 -204 0
-65 -205 0
-66 -206 0
-67 -207 0
-68 -208 0
-69 -209 0
-70 -210 0
-64 -218 0
-65 -219 0
-66 -220 0
-67 -221 0
-68 -222 0
-69 -223 0
-70 -224 0
-64 -225 0
-65 -226 0
-66 -227 0
-67 -228 0
-68 -229 0
-69 -230 0
-70 -231 0
-64 -239 0
-65 -240 0
-66 -241 0
-67 -242 0
-68 -243 0
-69 -244 0
-70 -245 0
-71 -106 0
-72 -107 0
-73 -108 0
-74 -109 0
-75 -110 0
-76 -111 0
-77 -112 0
-71 -127 0
-72 -128 0
-73 -129 0
-74 -130 0
-75 -131 0
-76 -132 0
-77 -133 0
-71 -155 0
-72 -156 0
-73 -157 0
-74 -158 0
-75 -159 0
-76 -160 0
-77 -161 0
-71 -162 0
-72 -163 0
-73 -164 0
-74 -165 0
-75 -166 0
-76 -167 0
-77 -168 0
-71 -169 0
-72 -170 0
-73 -171 0
-74 -172 0
-75 -173 0
-76 -174 0
-77 -175 0
-71 -190 0
-72 -191 0
-73 -192 0
-74 -193 0
-75 -194 0
-76 -195 0
-77 -196 0
-71 -197 0
-72 -198 0
-73 -199 0
-74 -200 0
-75 -201 0
-76 -202 0
-77 -203 0
-71 -204 0
-72 -205 0
-73 -206 0
-74 -207 0
-75 -208 0
-76 -209 0
-77 -210 0
-71 -232 0
-72 -233 0
-73 -234 0
-74 -235 0
-75 -236 0
-76 -237 0
-77 -238 0
-78 -92 0
-79 -93 0
-80 -94 0
-81 -95 0
-82 -96 0
-83 -97 0
-84 -98 0
-78 -99 0
-79 -100 0
-80 -101 0
-81 -102 0
-82 -103 0
-83 -104 0
-84 -105 0
-78 -106 0
-79 -107 0
-80 -108 0
-81 -109 0
-82 -110 0
-83 -111 0
-84 -112 0
-78 -113 0
-79 -114 0
-80 -115 0
-81 -116 0
-82 -117 0
-83 -118 0
-84 -119 0
-78 -120 0
-79 -121 0
-80 -122 0
-81 -123 0
-82 -124 0
-83 -125 0
-84 -126 0
-78 -134 0
-79 -135 0
-80 -136 0
-81 -137 0
-82 -138 0
-83 -139 0
-84 -140 0
-78 -155 0
-79 -156 0
-80 -157 0
-81 -158 0
-82 -159 0
-83 -160 0
-84 -161 0
-78 -162 0
-79 -163 0
-80 -164 0
-81 -165 0
-82 -166 0
-83 -167 0
-84 -168 0
-78 -176 0
-79 -177 0
-80 -178 0
-81 -179 0
-82 -180 0
-83 -181 0
-84 -182 0
-78 -197 0
-79 -198 0
-80 -199 0
-81 -200 0
-82 -201 0
-83 -202 0
-84 -203 0
-78 -204 0
-79 -205 0
-80 -206 0
-81 -207 0
-82 -208 0
-83 -209 0
-84 -210 0
-78 -211 0
-79 -212 0
-80 -213 0
-81 -214 0
-82 -215 0
-83 -216 0
-84 -217 0
-78 -218 0
-79 -219 0
-80 -220 0
-81 -221 0
-82 -222 0
-83 -223 0
-84 -224 0
-78 -232 0
-79 -233 0
-80 -234 0
-81 -235 0
-82 -236 0
-83 -237 0
-84 -238 0
-85 -99 0
-86 -100 0
-87 -101 0
-88 -102 0
-89 -103 0
-90 -104 0
-91 -105 0
-85 -113 0
-86 -114 0
-87 -115 0
-88 -116 0
-89 -117 0
-90 -118 0
-91 -119 0
-85 -127 0
-86 -128 0
-87 -129 0
-88 -130 0
-89 -131 0
-90 -132 0
-91 -133 0
-85 -134 0
-86 -135 0
-87 -136 0
-88 -137 0
-89 -138 0
-90 -139 0
-91 -140 0
-85 -162 0
-86 -163 0
-87 -164 0
-88 -165 0
-89 -166 0
-90 -167 0
-91 -168 0
-85 -183 0
-86 -184 0
-87 -185 0
-88 -186 0
-89 -187 0
-90 -188 0
-91 -189 0
-85 -197 0
-86 -198 0
-87 -199 0
-88 -200 0
-89 -201 0
-90 -202 0
-91 -203 0
-85 -225 0
-86 -226 0
-87 -227 0
-88 -228 0
-89 -229 0
-90 -230 0
-91 -231 0
-85 -239 0
-86 -240 0
-87 -241 0
-88 -242 0
-89 -243 0
-90 -244 0
-91 -245 0
-92 -99 0
-93 -100 0
-94 -101 0
-95 -102 0
-96 -103 0
-97 -104 0
-98 -105 0
-92 -113 0
-93 -114 0
-94 -115 0
-95 -116 0
-96 -117 0
-97 -118 0
-98 -119 0
-92 -134 0
-93 -135 0
-94 -136 0
-95 -137 0
-96 -138 0
-97 -139 0
-98 -140 0
-92 -162 0
-93 -163 0
-94 -164 0
-95 -165 0
-96 -166 0
-97 -167 0
-98 -168 0
-92 -169 0
-93 -170 0
-94 -171 0
-95 -172 0
-96 -173 0
-97 -174 0
-98 -175 0
-92 -211 0
-93 -212 0
-94 -213 0
-95 -214 0
-96 -215 0
-97 -216 0
-98 -217 0
-92 -218 0
-93 -219 0
-94 -220 0
-95 -221 0
-96 -222 0
-97 -223 0
-98 -224 0
-92 -232 0
-93 -233 0
-94 -234 0
-95 -235 0
-96 -236 0
-97 -237 0
-98 -238 0
-99 -127 0
-100 -128 0
-101 -129 0
-102 -130 0
-103 -131 0
-104 -132 0
-105 -133 0
-99 -155 0
-100 -156 0
-101 -157 0
-102 -158 0
-103 -159 0
-104 -160 0
-105 -161 0
-99 -211 0
-100 -212 0
-101 -213 0
-102 -214 0
-103 -215 0
-104 -216 0
-105 -217 0
-99 -218 0
-100 -219 0
-101 -220 0
-102 -221 0
-103 -222 0
-104 -223 0
-105 -224 0
-99 -225 0
-100 -226 0
-101 -227 0
-102 -228 0
-103 -229 0
-104 -230 0
-105 -231 0
-106 -127 0
-107 -128 0
-108 -129 0
-109 -130 0
-110 -131 0
-111 -132 0
-112 -133 0
-106 -134 0
-107 -135 0
-108 -136 0
-109 -137 0
-110 -138 0
-111 -139 0
-112 -140 0
-106 -148 0
-107 -149 0
-108 -150 0
-109 -151 0
-110 -152 0
-111 -153 0
-112 -154 0
-106 -162 0
-107 -163 0
-108 -164 0
-109 -165 0
-110 -166 0
-111 -167 0
-112 -168 0
-106 -218 0
-107 -219 0
-108 -220 0
-109 -221 0
-110 -222 0
-111 -223 0
-112 -224 0
-106 -225 0
-107 -226 0
-108 -227 0
-109 -228 0
-110 -229 0
-111 -230 0
-112 -231 0
-106 -232 0
-107 -233 0
-108 -234 0
-109 -235 0
-110 -236 0
-111 -237 0
-112 -238 0
-113 -127 0
-114 -128 0
-115 -129 0
-116 -130 0
-117 -131 0
-118 -132 0
-119 -133 0
-113 -148 0
-114 -149 0
-115 -150 0
-116 -151 0
-117 -152 0
-118 -153 0
-119 -154 0
-113 -155 0
-114 -156 0
-115 -157 0
-116 -158 0
-117 -159 0
-118 -160 0
-119 -161 0
-113 -176 0
-114 -177 0
-115 -178 0
-116 -179 0
-117 -180 0
-118 -181 0
-119 -182 0
-113 -190 0
-114 -191 0
-115 -192 0
-116 -193 0
-117 -194 0
-118 -195 0
-119 -196 0
-113 -204 0
-114 -205 0
-115 -206 0
-116 -207 0
-117 -208 0
-118 -209 0
-119 -210 0
-113 -218 0
-114 -219 0
-115 -220 0
-116 -221 0
-117 -222 0
-118 -223 0
-119 -224 0
-120 -141 0
-121 -142 0
-122 -143 0
-123 -144 0
-124 -145 0
-125 -146 0
-126 -147 0
-120 -162 0
-121 -163 0
-122 -164 0
-123 -165 0
-124 -166 0
-125 -167 0
-126 -168 0
-120 -169 0
-121 -170 0
-122 -171 0
-123 -172 0
-124 -173 0
-125 -174 0
-126 -175 0
-120 -176 0
-121 -177 0
-122 -178 0
-123 -179 0
-124 -180 0
-125 -181 0
-126 -182 0
-120 -211 0
-121 -212 0
-122 -213 0
-123 -214 0
-124 -215 0
-125 -216 0
-126 -217 0
-120 -225 0
-121 -226 0
-122 -227 0
-123 -228 0
-124 -229 0
-125 -230 0
-126 -231 0
-120 -239 0
-121 -240 0
-122 -241 0
-123 -242 0
-124 -243 0
-125 -244 0
-126 -245 0
-127 -155 0
-128 -156 0
-129 -157 0
-130 -158 0
-131 -159 0
-132 -160 0
-133 -161 0
-127 -197 0
-128 -198 0
-129 -199 0
-130 -200 0
-131 -201 0
-132 -202 0
-133 -203 0
-127 -204 0
-128 -205 0
-129 -206 0
-130 -207 0
-131 -208 0
-132 -209 0
-133 -210 0
-127 -211 0
-128 -212 0
-129 -213 0
-130 -214 0
-131 -215 0
-132 -216 0
-133 -217 0
-127 -239 0
-128 -240 0
-129 -241 0
-130 -242 0
-131 -243 0
-132 -244 0
-133 -245 0
-134 -155 0
-135 -156 0
-136 -157 0
-137 -158 0
-138 -159 0
-139 -160 0
-140 -161 0
-134 -176 0
-135 -177 0
-136 -178 0
-137 -179 0
-138 -180 0
-139 -181 0
-140 -182 0
-134 -183 0
-135 -184 0
-136 -185 0
-137 -186 0
-138 -187 0
-139 -188 0
-140 -189 0
-134 -197 0
-135 -198 0
-136 -199 0
-137 -200 0
-138 -201 0
-139 -202 0
-140 -203 0
-134 -204 0
-135 -205 0
-136 -206 0
-137 -207 0
-138 -208 0
-139 -209 0
-140 -210 0
-134 -225 0
-135 -226 0
-136 -227 0
-137 -228 0
-138 -229 0
-139 -230 0
-140 -231 0
-134 -239 0
-135 -240 0
-136 -241 0
-137 -242 0
-138 -243 0
-139 -244 0
-140 -245 0
-141 -155 0
-142 -156 0
-143 -157 0
-144 -158 0
-145 -159 0
-146 -160 0
-147 -161 0
-141 -176 0
-142 -177 0
-143 -178 0
-144 -179 0
-145 -180 0
-146 -181 0
-147 -182 0
-141 -183 0
-142 -184 0
-143 -185 0
-144 -186 0
-145 -187 0
-146 -188 0
-147 -189 0
-141 -218 0
-142 -219 0
-143 -220 0
-144 -221 0
-145 -222 0
-146 -223 0
-147 -224 0
-141 -232 0
-142 -233 0
-143 -234 0
-144 -235 0
-145 -236 0
-146 -237 0
-147 -238 0
-141 -239 0
-142 -240 0
-143 -241 0
-144 -242 0
-145 -243 0
-146 -244 0
-147 -245 0
-148 -155 0
-149 -156 0
-150 -157 0
-151 -158 0
-152 -159 0
-153 -160 0
-154 -161 0
-148 -169 0
-149 -170 0
-150 -171 0
-151 -172 0
-152 -173 0
-153 -174 0
-154 -175 0
-148 -176 0
-149 -177 0
-150 -178 0
-151 -179 0
-152 -180 0
-153 -181 0
-154 -182 0
-148 -183 0
-149 -184 0
-150 -185 0
-151 -186 0
-152 -187 0
-153 -188 0
-154 -189 0
-148 -197 0
-149 -198 0
-150 -199 0
-151 -200 0
-152 -201 0
-153 -202 0
-154 -203 0
-148 -204 0
-149 -205 0
-150 -206 0
-151 -207 0
-152 -208 0
-153 -209 0
-154 -210 0
-148 -211 0
-149 -212 0
-150 -213 0
-151 -214 0
-152 -215 0
-153 -216 0
-154 -217 0
-148 -218 0
-149 -219 0
-150 -220 0
-151 -221 0
-152 -222 0
-153 -223 0
-154 -224 0
-148 -232 0
-149 -233 0
-150 -234 0
-151 -235 0
-152 -236 0
-153 -237 0
-154 -238 0
-148 -239 0
-149 -240 0
-150 -241 0
-151 -242 0
-152 -243 0
-153 -244 0
-154 -245 0
-155 -176 0
-156 -177 0
-157 -178 0
-158 -179 0
-159 -180 0
-160 -181 0
-161 -182 0
-155 -190 0
-156 -191 0
-157 -192 0
-158 -193 0
-159 -194 0
-160 -195 0
-161 -196 0
-155 -211 0
-156 -212 0
-157 -213 0
-158 -214 0
-159 -215 0
-160 -216 0
-161 -217 0
-155 -225 0
-156 -226 0
-157 -227 0
-158 -228 0
-159 -229 0
-160 -230 0
-161 -231 0
-162 -169 0
-163 -170 0
-164 -171 0
-165 -172 0
-166 -173 0
-167 -174 0
-168 -175 0
-162 -176 0
-163 -177 0
-164 -178 0
-165 -179 0
-166 -180 0
-167 -181 0
-168 -182 0
-162 -190 0
-163 -191 0
-164 -192 0
-165 -193 0
-166 -194 0
-167 -195 0
-168 -196 0
-162 -197 0
-163 -198 0
-164 -199 0
-165 -200 0
-166 -201 0
-167 -202 0
-168 -203 0
-162 -225 0
-163 -226 0
-164 -227 0
-165 -228 0
-166 -229 0
-167 -230 0
-168 -231 0
-169 -183 0
-170 -184 0
-171 -185 0
-172 -186 0
-173 -187 0
-174 -188 0
-175 -189 0
-169 -197 0
-170 -198 0
-171 -199 0
-172 -200 0
-173 -201 0
-174 -202 0
-175 -203 0
-169 -211 0
-170 -212 0
-171 -213 0
-172 -214 0
-173 -215 0
-174 -216 0
-175 -217 0
-169 -218 0
-170 -219 0
-171 -220 0
-172 -221 0
-173 -222 0
-174 -223 0
-175 -224 0
-169 -232 0
-170 -233 0
-171 -234 0
-172 -235 0
-173 -236 0
-174 -237 0
-175 -238 0
-176 -204 0
-177 -205 0
-178 -206 0
-179 -207 0
-180 -208 0
-181 -209 0
-182 -210 0
-176 -211 0
-177 -212 0
-178 -213 0
-179 -214 0
-180 -215 0
-181 -216 0
-182 -217 0
-176 -239 0
-177 -240 0
-178 -241 0
-179 -242 0
-180 -243 0
-181 -244 0
-182 -245 0
-183 -197 0
-184 -198 0
-185 -199 0
-186 -200 0
-187 -201 0
-188 -202 0
-189 -203 0
-183 -211 0
-184 -212 0
-185 -213 0
-186 -214 0
-187 -215 0
-188 -216 0
-189 -217 0
-190 -197 0
-191 -198 0
-192 -199 0
-193 -200 0
-194 -201 0
-195 -202 0
-196 -203 0
-190 -204 0
-191 -205 0
-192 -206 0
-193 -207 0
-194 -208 0
-195 -209 0
-196 -210 0
-190 -211 0
-191 -212 0
-192 -213 0
-193 -214 0
-194 -215 0
-195 -216 0
-196 -217 0
-190 -225 0
-191 -226 0
-192 -227 0
-193 -228 0
-194 -229 0
-195 -230 0
-196 -231 0
-190 -232 0
-191 -233 0
-192 -234 0
-193 -235 0
-194 -236 0
-195 -237 0
-196 -238 0
-190 -239 0
-191 -240 0
-192 -241 0
-193 -242 0
-194 -243 0
-195 -244 0
-196 -245 0
-197 -204 0
-198 -205 0
-199 -206 0
-200 -207 0
-201 -208 0
-202 -209 0
-203 -210 0
-197 -211 0
-198 -212 0
-199 -213 0
-200 -214 0
-201 -215 0
-202 -216 0
-203 -217 0
-197 -218 0
-198 -219 0
-199 -220 0
-200 -221 0
-201 -222 0
-202 -223 0
-203 -224 0
-197 -232 0
-198 -233 0
-199 -234 0
-200 -235 0
-201 -236 0
-202 -237 0
-203 -238 0
-197 -239 0
-198 -240 0
-199 -241 0
-200 -242 0
-201 -243 0
-202 -244 0
-203 -245 0
-204 -211 0
-205 -212 0
-206 -213 0
-207 -214 0
-208 -215 0
-209 -216 0
-210 -217 0
-204 -218 0
-205 -219 0
-206 -220 0
-207 -221 0
-208 -222 0
-209 -223 0
-210 -224 0
-204 -225 0
-205 -226 0
-206 -227 0
-207 -228 0
-208 -229 0
-209 -230 0
-210 -231 0
-211 -218 0
-212 -219 0
-213 -220 0
-214 -221 0
-215 -222 0
-216 -223 0
-217 -224 0
-218 -232 0
-219 -233 0
-220 -234 0
-221 -235 0
-222 -236 0
-223 -237 0
-224 -238 0
-218 -239 0
-219 -240 0
-220 -241 0
-221 -242 0
-222 -243 0
-223 -244 0
-224 -245 0
-232 -239 0
-233 -240 0
-234 -241 0
-235 -242 0
-236 -243 0
-237 -244 0
-238 -245 0
